
Gurobi 11.0.0 (linux64) logging started Wed Apr 10 21:37:47 2024

Set parameter LogFile to value "/lustre1/scratch/348/vsc34888/JointResearch/05.Models/06.Benchmarking/B.Operation_cost/RTS24_ByStages_nc30/openStarNet_RTS24_ByStages_nc30.log"
Set parameter Method to value 2
Set parameter MIPFocus to value 1
Set parameter Presolve to value 2
Set parameter RINS to value 100
Set parameter MIPGap to value 0.01
Set parameter Threads to value 36
Set parameter TimeLimit to value 259200
Set parameter IterationLimit to value 760000000
Gurobi Optimizer version 11.0.0 build v11.0.0rc2 (linux64 - "Rocky Linux 8.8 (Green Obsidian)")

CPU model: Intel(R) Xeon(R) Gold 6140 CPU @ 2.30GHz, instruction set [SSE2|AVX|AVX2|AVX512]
Thread count: 36 physical cores, 36 logical processors, using up to 36 threads

Optimize a model with 11673 rows, 7052 columns and 31295 nonzeros
Model fingerprint: 0xdac20e9c
Variable types: 7022 continuous, 30 integer (30 binary)
Coefficient statistics:
  Matrix range     [3e-02, 1e+03]
  Objective range  [1e+00, 1e+00]
  Bounds range     [4e-04, 3e+00]
  RHS range        [4e-04, 3e+00]
Presolve removed 6264 rows and 3322 columns
Presolve time: 0.05s
Presolved: 5409 rows, 3730 columns, 19069 nonzeros
Variable types: 3700 continuous, 30 integer (30 binary)
Found heuristic solution: objective 349.9310337
Root relaxation presolved: 5409 rows, 3730 columns, 19069 nonzeros

Root barrier log...

Ordering time: 0.00s

Barrier statistics:
 Dense cols : 30
 AA' NZ     : 4.001e+04
 Factor NZ  : 1.046e+05 (roughly 5 MB of memory)
 Factor Ops : 2.227e+06 (less than 1 second per iteration)
 Threads    : 36

                  Objective                Residual
Iter       Primal          Dual         Primal    Dual     Compl     Time
   0   7.88821058e+05 -6.11305360e+07  6.79e+00 5.80e+02  1.55e+04     0s
   1   1.25871460e+05 -1.92140228e+07  8.59e-01 2.16e-09  2.39e+03     0s
   2   4.55644627e+04 -5.23275053e+06  1.51e-01 2.78e-09  5.14e+02     0s
   3   2.53367374e+04 -3.53992315e+05  2.28e-03 1.06e-10  3.32e+01     0s
   4   5.99017792e+03 -5.55075996e+04  3.91e-05 1.21e-11  5.37e+00     0s
   5   1.88543479e+03 -1.08922333e+04  1.04e-05 3.64e-12  1.12e+00     0s
   6   7.13108648e+02 -2.33181720e+03  1.99e-06 3.64e-12  2.66e-01     0s
   7   4.45194215e+02 -6.07057152e+02  7.20e-07 3.64e-12  9.19e-02     0s
   8   2.92528621e+02 -8.90977474e+01  2.07e-07 3.64e-12  3.33e-02     0s
   9   2.59344454e+02  4.74067163e+01  1.35e-07 1.82e-12  1.85e-02     0s
  10   2.24170949e+02  1.32653890e+02  6.70e-08 1.82e-12  7.99e-03     0s
  11   2.05245849e+02  1.67038773e+02  3.12e-08 3.64e-12  3.34e-03     0s
  12   1.96572946e+02  1.76544263e+02  1.57e-08 3.64e-12  1.75e-03     0s
  13   1.92893833e+02  1.83521422e+02  8.67e-09 3.64e-12  8.19e-04     0s
  14   1.90423685e+02  1.85815405e+02  4.03e-09 3.64e-12  4.02e-04     0s
  15   1.89441880e+02  1.86858262e+02  2.10e-09 1.82e-12  2.26e-04     0s
  16   1.88795317e+02  1.87948713e+02  7.74e-10 3.64e-12  7.39e-05     0s
  17   1.88490300e+02  1.88216055e+02  2.07e-10 3.64e-12  2.40e-05     0s
  18   1.88405328e+02  1.88337195e+02  6.00e-11 1.82e-12  5.95e-06     0s
  19   1.88385815e+02  1.88363856e+02  8.22e-11 3.64e-12  1.92e-06     0s
  20   1.88373730e+02  1.88370589e+02  6.47e-09 1.82e-12  2.74e-07     0s
  21   1.88371517e+02  1.88371299e+02  6.32e-10 1.82e-12  1.91e-08     0s
  22   1.88371348e+02  1.88371340e+02  1.09e-09 3.64e-12  6.37e-10     0s
  23   1.88371344e+02  1.88371342e+02  2.95e-10 3.64e-12  1.62e-10     0s

Barrier solved model in 23 iterations and 0.27 seconds (0.17 work units)
Optimal objective 1.88371344e+02


Root relaxation: objective 1.883713e+02, 809 iterations, 0.20 seconds (0.08 work units)

    Nodes    |    Current Node    |     Objective Bounds      |     Work
 Expl Unexpl |  Obj  Depth IntInf | Incumbent    BestBd   Gap | It/Node Time

     0     0  188.37134    0   21  349.93103  188.37134  46.2%     -    0s
     0     0  191.07422    0   17  349.93103  191.07422  45.4%     -    0s
H    0     0                     338.0683487  191.07422  43.5%     -    0s
H    0     0                     274.5158337  191.07519  30.4%     -    0s
     0     0  191.07590    0   16  274.51583  191.07590  30.4%     -    0s
     0     0  191.07590    0   16  274.51583  191.07590  30.4%     -    0s
     0     0  191.53841    0   18  274.51583  191.53841  30.2%     -    0s
     0     0  191.54184    0   15  274.51583  191.54184  30.2%     -    0s
H    0     0                     259.8558343  191.54185  26.3%     -    0s
     0     0  191.54185    0   15  259.85583  191.54185  26.3%     -    0s
     0     0  191.84853    0   16  259.85583  191.84853  26.2%     -    0s
     0     0  191.89154    0   16  259.85583  191.89154  26.2%     -    1s
     0     0  191.90059    0   14  259.85583  191.90059  26.2%     -    1s
     0     0  191.90253    0   14  259.85583  191.90253  26.2%     -    1s
H    0     0                     254.6514489  191.90253  24.6%     -    1s
     0     0  191.98393    0   13  254.65145  191.98393  24.6%     -    1s
     0     0  193.44874    0   16  254.65145  193.44874  24.0%     -    1s
H    0     0                     221.3311786  193.44874  12.6%     -    7s
     0     2  193.44874    0   16  221.33118  193.44874  12.6%     -    7s
H   97   132                     220.3535393  198.56706  9.89%   219   15s
H  104   132                     220.3352008  198.56706  9.88%   213   15s
H  130   132                     220.1322125  198.56706  9.80%   196   15s
  1100   518     cutoff   14       220.13221  199.25026  9.49%   126   24s
H 1102   518                     219.9862917  199.25026  9.43%   127   24s
  1159   516     cutoff   14       219.98629  199.25026  9.43%   127   26s
  2600   761  214.01581   10   13  219.98629  202.40456  7.99%   116   37s
  2691   772  219.57386   11   12  219.98629  202.40456  7.99%   115   42s
  4899  1401     cutoff   11       219.98629  209.78486  4.64%   106   50s
  7394  1732     cutoff   19       219.98629  212.04352  3.61%  96.2   57s
  9176  1983     cutoff   18       219.98629  213.20586  3.08%  92.3   60s
 16475  2224  217.48890   16    4  219.98629  215.52164  2.03%  82.1   70s
 18672  2146  219.54911   17    6  219.98629  215.98677  1.82%  80.5   76s
 21552  1805  219.92616   18    4  219.98629  216.64582  1.52%  78.2   83s
 23267  1533     cutoff   19       219.98629  216.84197  1.43%  77.0   90s

Cutting planes:
  Implied bound: 54
  MIR: 221
  Relax-and-lift: 10

Explored 27363 nodes (2019096 simplex iterations) in 94.11 seconds (103.96 work units)
Thread count was 36 (of 36 available processors)

Solution count 10: 219.986 220.132 220.335 ... 349.931

Optimal solution found (tolerance 1.00e-02)
Best objective 2.199862916706e+02, best bound 2.179988641061e+02, gap 0.9034%

Gurobi 11.0.0 (linux64) logging started Wed Apr 10 21:39:22 2024

Set parameter LogFile to value "/lustre1/scratch/348/vsc34888/JointResearch/05.Models/06.Benchmarking/B.Operation_cost/RTS24_ByStages_nc30/openStarNet_RTS24_ByStages_nc30.log"
Set parameter Method to value 2
Set parameter MIPFocus to value 1
Set parameter Presolve to value 2
Set parameter RINS to value 100
Set parameter MIPGap to value 0.01
Set parameter Threads to value 36
Set parameter TimeLimit to value 259200
Set parameter IterationLimit to value 760000000
Gurobi Optimizer version 11.0.0 build v11.0.0rc2 (linux64 - "Rocky Linux 8.8 (Green Obsidian)")

CPU model: Intel(R) Xeon(R) Gold 6140 CPU @ 2.30GHz, instruction set [SSE2|AVX|AVX2|AVX512]
Thread count: 36 physical cores, 36 logical processors, using up to 36 threads

Optimize a model with 11673 rows, 7022 columns and 27665 nonzeros
Model fingerprint: 0xa3919ad7
Coefficient statistics:
  Matrix range     [3e-02, 1e+03]
  Objective range  [1e+00, 1e+00]
  Bounds range     [4e-04, 3e+00]
  RHS range        [4e-04, 5e+01]
Presolve removed 9793 rows and 3914 columns
Presolve time: 0.01s
Presolved: 1880 rows, 3141 columns, 8379 nonzeros

Ordering time: 0.00s

Barrier statistics:
 AA' NZ     : 4.691e+03
 Factor NZ  : 1.409e+04 (roughly 2 MB of memory)
 Factor Ops : 1.808e+05 (less than 1 second per iteration)
 Threads    : 1

                  Objective                Residual
Iter       Primal          Dual         Primal    Dual     Compl     Time
   0   3.68831581e+06 -5.15114421e+07  1.18e+01 6.26e+03  1.21e+05     0s
   1   2.12852271e+05 -3.87085960e+07  6.22e-01 8.36e-11  1.29e+04     0s
   2   7.01301734e+04 -9.42987865e+06  1.50e-01 1.63e-10  2.43e+03     0s
   3   3.84506889e+04 -1.40404542e+06  1.82e-02 5.97e-11  3.14e+02     0s
   4   2.55491187e+04 -2.07241395e+05  3.70e-04 5.99e-11  4.81e+01     0s
   5   1.16436320e+04 -6.28937680e+04  4.91e-05 5.50e-11  1.54e+01     0s
   6   4.05610988e+03 -1.97028009e+04  1.08e-05 3.14e-11  4.90e+00     0s
   7   8.26635624e+02 -3.42090157e+03  4.70e-07 1.46e-11  8.75e-01     0s
   8   4.34188817e+02 -7.91856806e+02  1.80e-08 1.46e-11  2.53e-01     0s
   9   3.28475423e+02 -3.35154677e+02  7.42e-09 1.46e-11  1.37e-01     0s
  10   2.82597472e+02  3.62163778e+01  3.30e-09 1.46e-11  5.08e-02     0s
  11   2.54239314e+02  1.40610587e+02  1.59e-09 1.46e-11  2.34e-02     0s
  12   2.36124885e+02  1.87234472e+02  7.33e-10 1.46e-11  1.01e-02     0s
  13   2.25817871e+02  2.11682385e+02  2.42e-10 1.46e-11  2.91e-03     0s
  14   2.20256089e+02  2.18219619e+02  7.52e-13 2.91e-11  4.20e-04     0s
  15   2.20012533e+02  2.19773884e+02  6.04e-13 2.91e-11  4.92e-05     0s
  16   2.19988516e+02  2.19947003e+02  1.53e-12 1.46e-11  8.56e-06     0s
  17   2.19986698e+02  2.19985926e+02  2.05e-12 1.46e-11  1.59e-07     0s
  18   2.19986292e+02  2.19986291e+02  1.99e-12 2.91e-11  2.56e-10     0s
  19   2.19986292e+02  2.19986292e+02  7.12e-13 1.46e-11  5.04e-16     0s

Barrier solved model in 19 iterations and 0.05 seconds (0.03 work units)
Optimal objective 2.19986292e+02

Crossover log...

     321 DPushes remaining with DInf 0.0000000e+00                 0s
       0 DPushes remaining with DInf 0.0000000e+00                 0s

     112 PPushes remaining with PInf 0.0000000e+00                 0s
       0 PPushes remaining with PInf 0.0000000e+00                 0s

  Push phase complete: Pinf 0.0000000e+00, Dinf 2.3100170e-12      0s

Iteration    Objective       Primal Inf.    Dual Inf.      Time
     120    2.1998629e+02   0.000000e+00   0.000000e+00      0s

Use crossover to convert LP symmetric solution to basic solution...
Crossover log...

       0 DPushes remaining with DInf 0.0000000e+00                 0s

      64 PPushes remaining with PInf 0.0000000e+00                 0s
       0 PPushes remaining with PInf 0.0000000e+00                 0s

  Push phase complete: Pinf 0.0000000e+00, Dinf 2.2321938e-12      0s

Iteration    Objective       Primal Inf.    Dual Inf.      Time
     190    2.1998629e+02   0.000000e+00   0.000000e+00      0s

Solved in 190 iterations and 0.06 seconds (0.04 work units)
Optimal objective  2.199862917e+02
